NAME : C106
TYPE : CVRPTW
DIMENSION : 26
VEHICLES : 3
CAPACITY : 200
SERVICE_TIME : 90
SCALE : 10
EDGE_WEIGHT_TYPE : FLOOR_2D
NODE_COORD_SECTION
1 40 50
2 45 68
3 45 70
4 42 66
5 42 68
6 42 65
7 40 69
8 40 66
9 38 68
10 38 70
11 35 66
12 35 69
13 25 85
14 22 75
15 22 85
16 20 80
17 20 85
18 18 75
19 15 75
20 15 80
21 30 50
22 30 52
23 28 52
24 28 55
25 25 50
26 25 52
DEMAND_SECTION
1 0
2 10
3 30
4 10
5 10
6 10
7 20
8 20
9 20
10 10
11 10
12 10
13 20
14 30
15 10
16 40
17 40
18 20
19 20
20 10
21 10
22 20
23 20
24 10
25 10
26 40
TIME_WINDOW_SECTION
1 0 1236
2 890 989
3 816 879
4 55 156
5 703 806
6 15 60
7 559 764
8 172 223
9 250 329
10 489 650
11 361 406
12 450 503
13 647 726
14 30 95
15 571 616
16 392 421
17 478 525
18 105 142
19 172 261
20 274 349
21 10 77
22 918 961
23 806 889
24 739 770
25 55 154
26 172 221
DEPOT_SECTION
1 
-1
EOF
